14 47
1 2 1
1 3 1
1 4 1
1 5 0
1 6 1
1 7 1
1 8 0
1 9 0
1 10 0
1 11 1
1 12 1
1 13 1
1 14 1
2 3 1
2 4 0
2 5 0
2 6 0
2 7 1
2 8 1
2 9 1
2 10 1
2 11 0
2 12 1
2 13 1
2 14 0
3 4 0
3 5 0
3 6 0
3 7 0
3 8 0
3 9 1
3 10 1
3 11 0
3 12 0
3 13 1
3 14 1
4 5 0
4 6 1
4 7 0
4 8 0
4 9 1
4 10 1
4 11 1
4 12 1
4 13 0
4 14 1
5 6 0
5 7 0
5 8 0
5 9 1
5 10 1
5 11 0
5 12 0
5 13 0
5 14 1
6 7 1
6 8 0
6 9 1
6 10 1
6 11 1
6 12 0
6 13 1
6 14 1
7 8 1
7 9 0
7 10 0
7 11 0
7 12 0
7 13 0
7 14 0
8 9 0
8 10 1
8 11 1
8 12 0
8 13 0
8 14 0
9 10 1
9 11 0
9 12 0
9 13 0
9 14 1
10 11 0
10 12 0
10 13 1
10 14 1
11 12 1
11 13 1
11 14 1
12 13 1
12 14 1
13 14 0
